NAME: random86
TYPE: TSP
DIMENSION: 86
EDGE_WEIGHT_TYPE: EXPLICIT
EDGE_WEIGHT_FORMAT: FULL_MATRIX
EDGE_WEIGHT_SECTION
0 635 635 635 635 635 635 635 11 635 635 635 635 635 43 635 7 25 635 635 635 635 635 635 635 635 635 635 7 635 11 635 635 635 635 635 635 8 635 23 24 15 635 635 18 635 635 635 635 19 635 15 635 635 635 635 635 635 635 635 22 635 635 22 74 635 635 22 635 635 635 635 635 635 3 635 635 635 635 635 635 635 635 635 635 635
635 0 12 635 635 13 635 635 635 635 15 635 635 2 635 635 635 635 635 635 635 635 635 29 635 635 635 635 635 635 60 635 635 635 635 635 635 635 635 635 32 635 635 635 37 635 635 635 635 64 635 635 635 635 9 635 635 635 635 635 635 635 635 38 23 635 635 635 635 635 5 2 635 3 635 635 635 635 17 33 635 635 635 15 21 635
635 12 0 635 635 18 635 635 635 635 6 635 30 10 635 12 635 635 635 635 635 635 635 19 635 635 635 10 635 635 635 635 635 24 635 635 635 38 635 24 25 635 635 635 29 635 635 635 635 57 635 635 635 635 13 635 635 12 635 635 635 635 635 32 34 635 635 34 635 635 8 11 635 13 635 635 24 635 20 635 635 635 635 16 10 635
635 635 635 0 635 635 635 635 37 635 635 635 17 635 37 635 635 20 635 27 635 635 635 635 635 13 635 635 635 635 635 635 9 635 635 635 635 635 21 32 635 635 8 8 635 16 635 17 635 635 635 635 29 635 635 635 635 34 635 635 635 20 635 635 635 23 635 23 635 635 635 635 635 635 635 10 20 635 635 635 12 635 22 635 635 14
635 635 635 635 0 635 29 635 635 635 635 21 635 635 635 635 635 635 43 29 635 9 18 635 635 28 635 635 635 635 635 635 635 635 5 30 29 635 20 635 635 635 635 21 635 12 18 635 635 635 635 635 635 18 635 17 635 635 20 14 635 9 635 635 635 21 22 635 635 10 635 635 24 635 635 635 635 635 635 635 635 635 635 635 635 19
635 13 18 635 635 0 635 635 635 15 17 635 635 14 635 20 635 635 635 635 635 635 635 635 635 635 635 20 635 41 635 635 635 16 635 635 635 635 635 635 635 635 635 635 635 635 635 635 635 635 635 635 635 635 23 635 24 635 635 635 635 635 38 49 26 635 635 635 635 635 17 11 635 10 635 635 635 635 4 20 635 635 635 6 23 635
635 635 635 635 29 635 0 635 635 635 635 635 635 635 635 635 635 635 23 635 635 635 635 635 4 635 635 635 635 27 635 635 635 635 27 59 635 635 635 635 635 635 635 635 635 635 635 25 635 635 635 635 23 12 635 22 635 635 635 18 635 26 20 635 635 18 635 635 635 30 635 635 8 635 635 635 635 20 635 43 635 635 635 635 635 27
635 635 635 635 635 635 635 0 53 635 635 22 635 635 22 635 635 45 635 16 635 635 635 635 635 30 3 635 635 635 635 3 35 635 635 635 16 635 26 635 635 635 42 635 635 635 635 635 18 635 9 635 635 635 635 635 635 635 635 635 635 635 635 635 635 635 21 635 3 635 635 635 635 635 635 635 635 635 635 635 635 635 24 635 635 635
11 635 635 37 635 635 635 53 0 635 635 635 635 635 32 635 11 18 635 46 635 635 635 30 635 36 635 635 14 635 20 635 35 635 635 635 635 15 635 25 635 20 29 635 26 635 635 635 635 27 635 21 635 635 635 635 635 635 635 635 29 635 635 31 635 635 635 19 635 635 635 635 635 635 10 635 36 635 635 635 38 635 33 635 635 635
635 635 635 635 635 15 635 635 635 0 24 635 33 635 635 22 635 635 635 635 23 635 635 635 38 635 635 24 635 26 635 635 635 7 635 635 635 635 635 635 635 635 635 635 635 635 635 635 635 635 635 635 635 635 635 635 12 635 635 635 635 635 23 635 40 635 635 635 635 635 635 26 635 25 635 635 635 635 12 7 635 21 635 13 635 635
635 15 6 635 635 17 635 635 635 24 0 635 25 14 635 6 635 635 635 635 635 635 635 21 635 635 635 5 635 635 635 635 635 19 635 635 635 635 635 25 29 635 635 635 33 635 635 635 635 635 635 635 635 635 19 635 24 6 635 635 635 635 635 635 38 635 635 635 635 635 13 14 635 16 635 635 21 635 18 635 635 27 635 13 6 635
635 635 635 635 21 635 635 22 635 635 635 0 635 635 635 635 635 635 635 11 635 23 4 635 635 21 21 635 635 635 635 635 635 635 23 15 9 635 9 635 635 635 635 635 635 635 3 635 20 635 22 635 635 635 635 635 635 635 4 635 635 635 635 635 635 635 4 635 635 26 635 635 635 635 635 635 635 635 635 635 635 635 635 635 635 635
635 635 30 17 635 635 635 635 635 33 25 635 0 635 635 20 635 29 635 635 16 635 635 29 32 635 635 21 42 635 635 635 26 27 635 635 635 635 635 29 635 635 21 23 635 23 635 12 635 635 635 635 15 28 635 635 23 19 635 635 635 26 32 635 635 18 635 27 635 635 635 635 635 635 635 11 11 635 635 39 8 17 635 32 21 16
635 2 10 635 635 14 635 635 635 635 14 635 635 0 635 20 635 635 635 635 635 635 635 28 635 635 635 19 635 635 635 635 635 635 635 635 635 635 635 635 31 635 635 635 635 635 635 635 635 635 635 635 635 635 9 635 635 635 635 635 635 635 635 37 24 635 635 635 635 635 3 3 635 4 635 635 635 635 635 635 635 635 635 15 19 635
43 635 635 37 635 635 635 22 32 635 635 635 635 635 0 635 41 30 635 23 635 635 635 635 635 25 25 635 45 635 50 25 29 635 635 635 33 635 31 50 635 47 32 35 635 635 635 635 635 57 30 49 635 635 635 635 635 635 635 635 55 635 635 635 635 635 31 39 24 635 635 635 635 635 42 635 635 635 635 635 47 635 16 635 635 635
635 635 12 635 635 20 635 635 635 22 6 635 20 20 635 0 635 635 635 635 23 635 635 22 635 635 635 2 635 43 635 635 635 17 635 635 635 635 635 635 635 635 635 635 635 635 635 31 635 635 635 635 24 635 635 635 20 2 635 635 635 635 35 635 635 35 635 32 635 635 635 20 635 21 635 31 17 635 20 29 23 22 635 15 5 635
7 635 635 635 635 635 635 635 11 635 635 635 635 635 41 635 0 28 635 635 635 635 635 635 635 635 635 635 14 635 9 635 635 635 635 635 635 15 635 635 635 10 635 635 25 635 635 635 635 17 635 10 635 635 635 635 635 635 635 635 18 635 635 28 81 635 635 27 635 635 635 635 635 635 9 635 635 635 635 635 635 635 44 635 635 635
25 635 635 20 635 635 635 45 18 635 635 635 29 635 30 635 28 0 635 34 635 635 635 635 635 21 47 635 22 635 635 635 18 635 635 635 635 23 33 21 635 38 11 25 635 635 635 635 635 635 635 39 635 635 635 635 635 635 635 635 46 635 635 635 635 635 635 9 47 635 635 635 635 635 23 28 22 635 635 635 21 635 22 635 635 635
635 635 635 635 43 635 23 635 635 635 635 635 635 635 635 635 635 635 0 635 635 41 635 635 26 635 635 635 635 37 635 635 635 635 44 68 635 635 635 635 635 635 635 635 635 635 635 635 635 635 635 635 46 32 635 28 635 635 62 29 635 635 37 635 635 635 635 635 635 38 635 635 21 635 635 635 635 5 635 59 635 635 635 635 635 635
635 635 635 27 29 635 635 16 46 635 635 11 635 635 23 635 635 34 635 0 635 635 12 635 635 15 16 635 635 635 635 17 20 635 30 23 13 635 10 635 635 65 28 21 635 29 14 635 24 635 20 635 635 635 635 635 635 635 15 635 635 635 635 635 635 635 8 42 17 635 635 635 635 635 635 635 635 635 635 635 635 635 13 635 635 34
635 635 635 635 635 635 635 635 635 23 635 635 16 635 635 23 635 635 635 635 0 635 635 635 21 635 635 635 635 27 635 635 635 18 635 635 635 635 635 635 635 635 635 635 635 635 635 17 635 635 635 635 3 24 635 635 11 23 635 635 635 635 16 635 635 17 635 635 635 635 635 635 635 635 635 22 635 42 635 27 635 2 635 635 635 635
635 635 635 635 9 635 635 635 635 635 635 23 635 635 635 635 635 635 41 635 635 0 22 635 635 635 635 635 635 635 635 635 635 635 14 28 30 635 26 635 635 635 635 635 635 635 20 635 36 635 43 635 635 23 635 13 635 635 21 14 635 635 635 635 635 635 26 635 635 3 635 635 25 635 635 635 635 635 635 635 635 635 635 635 635 635
635 635 635 635 18 635 635 635 635 635 635 4 635 635 635 635 635 635 635 12 635 22 0 635 635 18 24 635 635 635 635 635 635 635 20 19 13 635 6 635 635 635 635 19 635 21 4 635 635 635 635 635 635 35 635 635 635 635 6 32 635 22 635 635 635 635 4 635 635 24 635 635 635 635 635 635 635 635 635 635 635 635 22 635 635 635
635 29 19 635 635 635 635 635 30 635 21 635 29 28 635 22 635 635 635 635 635 635 635 0 635 635 635 20 20 635 35 635 635 635 635 635 635 20 635 6 12 635 30 635 14 635 635 635 635 635 635 635 635 635 25 635 635 20 635 635 635 635 635 20 51 635 635 17 635 635 24 30 635 635 25 635 18 635 635 635 25 635 635 34 16 635
635 635 635 635 635 635 4 635 635 38 635 635 32 635 635 635 635 635 26 635 21 635 635 635 0 635 635 635 635 24 635 635 635 635 29 635 635 635 635 635 635 635 635 635 635 29 635 24 635 635 635 635 20 13 635 26 28 635 635 21 635 27 16 635 78 18 635 635 635 635 635 635 12 635 635 31 635 22 49 39 635 22 635 635 635 27
635 635 635 13 28 635 635 30 36 635 635 21 635 635 25 635 635 21 635 15 635 635 18 635 635 0 31 635 635 635 635 635 5 635 26 635 27 635 12 635 635 635 13 10 635 22 635 635 635 635 635 635 635 635 635 635 635 635 635 635 635 25 635 635 635 635 17 28 31 635 635 635 635 635 635 22 635 635 635 635 25 635 9 635 635 24
635 635 635 635 635 635 635 3 635 635 635 21 635 635 25 635 635 47 635 16 635 635 24 635 635 31 0 635 635 635 635 1 635 635 635 21 13 635 25 635 635 635 635 635 635 635 635 635 15 635 6 635 635 635 635 635 635 635 22 635 635 635 635 635 635 635 20 635 1 635 635 635 635 635 635 635 635 635 635 635 635 635 25 635 635 635
635 635 10 635 635 20 635 635 635 24 5 635 21 19 635 2 635 635 635 635 635 635 635 20 635 635 635 0 635 635 635 635 635 18 635 635 635 635 635 24 30 635 635 635 635 635 635 635 635 635 635 635 26 635 635 635 22 2 635 635 635 635 635 635 635 635 635 635 635 635 635 19 635 635 635 635 16 635 635 635 23 24 635 15 3 635
7 635 635 635 635 635 635 635 14 635 635 635 42 635 45 635 14 22 635 635 635 635 635 20 635 635 635 635 0 635 17 635 635 635 635 635 635 1 635 16 18 22 33 635 12 635 635 635 635 635 635 635 635 635 635 635 635 635 635 635 635 635 635 18 635 635 635 17 635 635 635 635 635 635 5 635 32 635 635 635 36 635 42 635 36 635
635 635 635 635 635 41 27 635 635 26 635 635 635 635 635 43 635 635 37 635 27 635 635 635 24 635 635 635 635 0 635 635 635 28 635 85 635 635 635 635 635 635 635 635 635 635 635 41 635 635 635 635 28 37 635 49 23 635 635 46 635 635 11 635 64 37 635 635 635 635 635 635 35 51 635 635 635 32 37 22 635 26 635 38 635 635
11 60 635 635 635 635 635 635 20 635 635 635 635 635 50 635 9 635 635 635 635 635 635 35 635 635 635 635 17 635 0 635 635 635 635 635 635 16 635 32 28 8 635 635 23 635 635 635 635 8 635 6 635 635 53 635 635 635 635 635 12 635 635 23 78 635 635 635 635 635 635 635 635 635 13 635 635 635 635 635 635 635 635 635 635 635
635 635 635 635 635 635 635 3 635 635 635 635 635 635 25 635 635 635 635 17 635 635 635 635 635 635 1 635 635 635 635 0 635 635 635 21 14 635 635 635 635 635 635 635 635 635 635 635 15 635 5 635 635 635 635 635 635 635 635 635 635 635 635 635 635 635 20 635 1 635 635 635 635 635 635 635 635 635 635 635 635 635 635 635 635 635
635 635 635 9 635 635 635 35 35 635 635 635 26 635 29 635 635 18 635 20 635 635 635 635 635 5 635 635 635 635 635 635 0 635 26 635 635 635 16 635 635 635 9 8 635 20 635 25 635 635 635 635 635 635 635 635 635 635 635 635 635 635 635 635 635 635 21 25 635 635 635 635 635 635 635 18 27 635 635 635 20 635 13 635 635 20
635 635 24 635 635 16 635 635 635 7 19 635 27 635 635 17 635 635 635 635 18 635 635 635 635 635 635 18 635 28 635 635 635 0 635 635 635 635 635 635 635 635 635 635 635 635 635 635 635 635 635 635 21 635 635 635 8 18 635 635 635 635 23 635 42 635 635 635 635 635 635 24 635 635 635 635 635 635 13 13 635 16 635 11 22 635
635 635 635 635 5 635 27 635 635 635 635 23 635 635 635 635 635 635 44 30 635 14 20 635 29 26 635 635 635 635 635 635 26 635 0 34 635 635 20 635 635 635 635 17 635 7 21 19 635 635 635 635 31 15 635 19 635 635 635 15 635 4 635 635 635 17 24 635 635 15 635 635 23 635 635 20 635 43 635 635 635 635 635 635 635 14
635 635 635 635 30 635 59 635 635 635 635 15 635 635 635 635 635 635 68 23 635 28 19 635 635 635 21 635 635 85 635 21 635 635 34 0 10 635 635 635 635 635 635 635 635 635 15 635 9 635 18 635 635 48 635 40 635 635 13 42 635 635 635 635 635 635 19 635 635 30 635 635 52 635 635 635 635 69 635 635 635 635 635 635 635 635
635 635 635 635 29 635 635 16 635 635 635 9 635 635 33 635 635 635 635 13 635 30 13 635 635 27 13 635 635 635 635 14 635 635 635 10 0 635 17 635 635 635 635 31 635 635 12 635 11 635 13 635 635 635 635 43 635 635 9 635 635 635 635 635 635 635 11 635 15 33 635 635 635 635 635 635 635 635 635 635 635 635 26 635 635 635
8 635 38 635 635 635 635 635 15 635 635 635 635 635 635 635 15 23 635 635 635 635 635 20 635 635 635 635 1 635 16 635 635 635 635 635 635 0 635 16 17 23 635 635 11 635 635 635 635 23 635 21 635 635 41 635 635 635 635 635 28 635 635 17 67 635 635 18 635 635 635 635 635 635 6 635 32 635 635 635 36 635 635 635 36 635
635 635 635 21 20 635 635 26 635 635 635 9 635 635 31 635 635 33 635 10 635 26 6 635 635 12 25 635 635 635 635 635 16 635 20 635 17 635 0 635 635 635 25 14 635 19 10 31 635 635 28 635 635 35 635 36 635 635 12 34 635 21 635 635 635 33 6 635 635 28 635 635 43 635 635 26 635 635 635 635 635 635 17 635 635 25
23 635 24 32 635 635 635 635 25 635 25 635 29 635 50 635 635 21 635 635 635 635 635 6 635 635 635 24 16 635 32 635 635 635 635 635 635 16 635 0 14 635 27 635 13 635 635 635 635 38 635 635 635 635 31 635 635 24 635 635 635 635 635 21 635 635 635 12 635 635 635 635 635 635 21 35 18 635 635 635 24 635 635 635 20 635
24 32 25 635 635 635 635 635 635 635 29 635 635 31 635 635 635 635 635 635 635 635 635 12 635 635 635 30 18 635 28 635 635 635 635 635 635 17 635 14 0 635 635 635 6 635 635 635 635 33 635 635 635 635 25 635 635 31 635 635 635 635 635 8 51 635 635 25 635 635 27 33 635 35 635 635 30 635 635 635 635 635 635 635 27 635
15 635 635 635 635 635 635 635 20 635 635 635 635 635 47 635 10 38 635 65 635 635 635 635 635 635 635 635 22 635 8 635 635 635 635 635 635 23 635 635 635 0 49 635 635 635 635 635 635 11 635 3 635 635 635 635 635 635 635 635 8 635 635 32 635 635 635 37 635 635 635 635 635 635 18 635 635 635 635 635 635 635 52 635 635 635
635 635 635 8 635 635 635 42 29 635 635 635 21 635 32 635 635 11 635 28 635 635 635 30 635 13 635 635 33 635 635 635 9 635 635 635 635 635 25 27 635 49 0 14 635 635 635 25 635 635 635 635 635 635 635 635 635 34 635 635 635 635 635 635 635 635 635 16 635 635 635 635 635 635 34 17 19 635 635 635 14 635 19 635 635 22
635 635 635 8 21 635 635 635 635 635 635 635 23 635 35 635 635 25 635 21 635 635 19 635 635 10 635 635 635 635 635 635 8 635 17 635 31 635 14 635 635 635 14 0 635 12 635 19 635 635 635 635 32 29 635 635 635 635 635 32 635 15 635 635 635 23 20 31 635 635 635 635 635 635 635 13 28 635 635 635 20 635 19 635 635 14
18 37 29 635 635 635 635 635 26 635 33 635 635 635 635 635 25 635 635 635 635 635 635 14 635 635 635 635 12 635 23 635 635 635 635 635 635 11 635 13 6 635 635 635 0 635 635 635 635 28 635 29 635 635 30 635 635 34 635 635 635 635 635 8 56 635 635 22 635 635 32 635 635 635 17 635 31 635 635 635 37 635 635 635 30 635
635 635 635 16 12 635 635 635 635 635 635 635 23 635 635 635 635 635 635 29 635 635 21 635 29 22 635 635 635 635 635 635 20 635 7 635 635 635 19 635 635 635 635 12 635 0 23 13 635 635 635 635 26 17 635 635 635 635 635 21 635 4 635 635 635 14 24 635 635 22 635 635 27 635 635 13 635 635 635 635 24 635 31 635 635 8
635 635 635 635 18 635 635 635 635 635 635 3 635 635 635 635 635 635 635 14 635 20 4 635 635 635 635 635 635 635 635 635 635 635 21 15 12 635 10 635 635 635 635 635 635 23 0 635 21 635 635 635 635 635 635 32 635 635 3 32 635 635 635 635 635 635 7 635 635 22 635 635 635 635 635 635 635 635 635 635 635 635 635 635 635 635
635 635 635 17 635 635 25 635 635 635 635 635 12 635 635 31 635 635 635 635 17 635 635 635 24 635 635 635 635 41 635 635 25 635 19 635 635 635 31 635 635 635 25 19 635 13 635 0 635 635 635 635 14 17 635 635 27 30 635 635 635 15 29 635 635 7 635 36 635 635 635 635 635 635 635 8 23 635 635 635 17 18 635 635 635 6
635 635 635 635 635 635 635 18 635 635 635 20 635 635 635 635 635 635 635 24 635 36 635 635 635 635 15 635 635 635 635 15 635 635 635 9 11 635 635 635 635 635 635 635 635 635 21 635 0 635 11 635 635 635 635 635 635 635 19 635 635 635 635 635 635 635 22 635 16 39 635 635 635 635 635 635 635 635 635 635 635 635 635 635 635 635
19 64 57 635 635 635 635 635 27 635 635 635 635 635 57 635 17 635 635 635 635 635 635 635 635 635 635 635 635 635 8 635 635 635 635 635 635 23 635 38 33 11 635 635 28 635 635 635 635 0 635 8 635 635 56 635 635 635 635 635 8 635 635 26 80 635 635 635 635 635 59 635 635 67 21 635 635 635 635 635 635 635 635 635 635 635
635 635 635 635 635 635 635 9 635 635 635 22 635 635 30 635 635 635 635 20 635 43 635 635 635 635 6 635 635 635 635 5 635 635 635 18 13 635 28 635 635 635 635 635 635 635 635 635 11 635 0 635 635 635 635 635 635 635 23 635 635 635 635 635 635 635 22 635 6 635 635 635 635 635 635 635 635 635 635 635 635 635 635 635 635 635
15 635 635 635 635 635 635 635 21 635 635 635 635 635 49 635 10 39 635 635 635 635 635 635 635 635 635 635 635 635 6 635 635 635 635 635 635 21 635 635 635 3 635 635 29 635 635 635 635 8 635 0 635 635 59 635 635 635 635 635 7 635 635 29 84 635 635 635 635 635 635 635 635 635 17 635 635 635 635 635 635 635 635 635 635 635
635 635 635 29 635 635 23 635 635 635 635 635 15 635 635 24 635 635 46 635 3 635 635 635 20 635 635 26 635 28 635 635 635 21 31 635 635 635 635 635 635 635 635 32 635 26 635 14 635 635 635 635 0 22 635 635 14 24 635 635 635 27 18 635 62 14 635 635 635 635 635 635 29 635 635 20 25 41 635 30 22 4 635 635 635 20
635 635 635 635 18 635 12 635 635 635 635 635 28 635 635 635 635 635 32 635 24 23 35 635 13 635 635 635 635 37 635 635 635 635 15 48 635 635 35 635 635 635 635 29 635 17 635 17 635 635 635 635 22 0 635 17 635 635 635 12 635 14 27 635 635 10 635 635 635 22 635 635 11 635 635 23 635 29 635 635 635 635 635 635 635 17
635 9 13 635 635 23 635 635 635 635 19 635 635 9 635 635 635 635 635 635 635 635 635 25 635 635 635 635 635 635 53 635 635 635 635 635 635 41 635 31 25 635 635 635 30 635 635 635 635 56 635 59 635 635 0 635 635 635 635 635 635 635 635 30 26 635 635 635 635 635 7 12 635 13 635 635 36 635 26 635 635 635 635 635 23 635
635 635 635 635 17 635 22 635 635 635 635 635 635 635 635 635 635 635 28 635 635 13 635 635 26 635 635 635 635 49 635 635 635 635 19 40 43 635 36 635 635 635 635 635 635 635 32 635 635 635 635 635 635 17 635 0 635 635 34 6 635 22 635 635 635 635 635 635 635 10 635 635 14 635 635 635 635 29 635 635 635 635 635 635 635 635
635 635 635 635 635 24 635 635 635 12 24 635 23 635 635 20 635 635 635 635 11 635 635 635 28 635 635 22 635 23 635 635 635 8 635 635 635 635 635 635 635 635 635 635 635 635 635 27 635 635 635 635 14 635 635 635 0 21 635 635 635 635 16 635 50 635 635 635 635 635 635 32 635 635 635 635 30 47 21 16 635 9 635 19 635 635
635 635 12 34 635 635 635 635 635 635 6 635 19 635 635 2 635 635 635 635 23 635 635 20 635 635 635 2 635 635 635 635 635 18 635 635 635 635 635 24 31 635 34 635 34 635 635 30 635 635 635 635 24 635 635 635 21 0 635 635 635 635 36 635 635 635 635 30 635 635 635 20 635 635 635 30 15 635 635 635 21 22 635 16 4 635
635 635 635 635 20 635 635 635 635 635 635 4 635 635 635 635 635 635 62 15 635 21 6 635 635 635 22 635 635 635 635 635 635 635 635 13 9 635 12 635 635 635 635 635 635 635 3 635 19 635 23 635 635 635 635 34 635 635 0 33 635 635 635 635 635 635 8 635 635 24 635 635 635 635 635 635 635 635 635 635 635 635 635 635 635 635
635 635 635 635 14 635 18 635 635 635 635 635 635 635 635 635 635 635 29 635 635 14 32 635 21 635 635 635 635 46 635 635 635 635 15 42 635 635 34 635 635 635 635 32 635 21 32 635 635 635 635 635 635 12 635 6 635 635 33 0 635 17 635 635 635 21 36 635 635 12 635 635 11 635 635 635 635 29 635 635 635 635 635 635 635 25
22 635 635 635 635 635 635 635 29 635 635 635 635 635 55 635 18 46 635 635 635 635 635 635 635 635 635 635 635 635 12 635 635 635 635 635 635 28 635 635 635 8 635 635 635 635 635 635 635 8 635 7 635 635 635 635 635 635 635 635 0 635 635 34 88 635 635 44 635 635 635 635 635 635 635 635 635 635 635 635 635 635 60 635 635 635
635 635 635 20 9 635 26 635 635 635 635 635 26 635 635 635 635 635 635 635 635 635 22 635 27 25 635 635 635 635 635 635 635 635 4 635 635 635 21 635 635 635 635 15 635 4 635 15 635 635 635 635 27 14 635 22 635 635 635 17 635 0 39 635 635 14 635 635 635 19 635 635 24 635 635 16 635 43 635 635 635 635 635 635 635 10
635 635 635 635 635 38 20 635 635 23 635 635 32 635 635 35 635 635 37 635 16 635 635 635 16 635 635 635 635 11 635 635 635 23 635 635 635 635 635 635 635 635 635 635 635 635 635 29 635 635 635 635 18 27 635 635 16 36 635 635 635 39 0 635 63 26 635 635 635 635 635 635 28 635 635 635 635 31 35 23 635 16 635 34 635 35
22 38 32 635 635 49 635 635 31 635 635 635 635 37 635 635 28 635 635 635 635 635 635 20 635 635 635 635 18 635 23 635 635 635 635 635 635 17 635 21 8 32 635 635 8 635 635 635 635 26 635 29 635 635 30 635 635 635 635 635 34 635 635 0 54 635 635 30 635 635 33 40 635 41 22 635 37 635 635 635 635 635 635 635 35 635
74 23 34 635 635 26 635 635 635 40 38 635 635 24 635 635 81 635 635 635 635 635 635 51 78 635 635 635 635 64 78 635 635 42 635 635 635 67 635 635 51 635 635 635 56 635 635 635 635 80 635 84 62 635 26 635 50 635 635 635 88 635 63 54 0 635 635 635 635 635 27 23 635 22 635 635 635 94 29 41 635 58 635 32 635 635
635 635 635 23 21 635 18 635 635 635 635 635 18 635 635 35 635 635 635 635 17 635 635 635 18 635 635 635 635 37 635 635 635 635 17 635 635 635 33 635 635 635 635 23 635 14 635 7 635 635 635 635 14 10 635 635 635 635 635 21 635 14 26 635 635 0 635 635 635 635 635 635 20 635 635 14 635 38 635 43 23 18 635 635 635 10
635 635 635 635 22 635 635 21 635 635 635 4 635 635 31 635 635 635 635 8 635 26 4 635 635 17 20 635 635 635 635 20 21 635 24 19 11 635 6 635 635 635 635 20 635 24 7 635 22 635 22 635 635 635 635 635 635 635 8 36 635 635 635 635 635 635 0 635 21 635 635 635 635 635 635 635 635 635 635 635 635 635 19 635 635 635
22 635 34 23 635 635 635 635 19 635 635 635 27 635 39 32 27 9 635 42 635 635 635 17 635 28 635 635 17 635 635 635 25 635 635 635 635 18 635 12 25 37 16 31 22 635 635 36 635 635 635 635 635 635 635 635 635 30 635 635 44 635 635 30 635 635 635 0 635 635 635 635 635 635 19 29 17 635 635 635 20 635 31 635 28 635
635 635 635 635 635 635 635 3 635 635 635 635 635 635 24 635 635 47 635 17 635 635 635 635 635 31 1 635 635 635 635 1 635 635 635 635 15 635 635 635 635 635 635 635 635 635 635 635 16 635 6 635 635 635 635 635 635 635 635 635 635 635 635 635 635 635 21 635 0 635 635 635 635 635 635 635 635 635 635 635 635 635 26 635 635 635
635 635 635 635 10 635 30 635 635 635 635 26 635 635 635 635 635 635 38 635 635 3 24 635 635 635 635 635 635 635 635 635 635 635 15 30 33 635 28 635 635 635 635 635 635 22 22 635 39 635 635 635 635 22 635 10 635 635 24 12 635 19 635 635 635 635 635 635 635 0 635 635 23 635 635 635 635 39 635 635 635 635 635 635 635 635
635 5 8 635 635 17 635 635 635 635 13 635 635 3 635 635 635 635 635 635 635 635 635 24 635 635 635 635 635 635 635 635 635 635 635 635 635 635 635 635 27 635 635 635 32 635 635 635 635 59 635 635 635 635 7 635 635 635 635 635 635 635 635 33 27 635 635 635 635 635 0 6 635 8 635 635 635 635 635 635 635 635 635 18 18 635
635 2 11 635 635 11 635 635 635 26 14 635 635 3 635 20 635 635 635 635 635 635 635 30 635 635 635 19 635 635 635 635 635 24 635 635 635 635 635 635 33 635 635 635 635 635 635 635 635 635 635 635 635 635 12 635 32 20 635 635 635 635 635 40 23 635 635 635 635 635 6 0 635 2 635 635 35 635 15 31 635 635 635 13 20 635
635 635 635 635 24 635 8 635 635 635 635 635 635 635 635 635 635 635 21 635 635 25 635 635 12 635 635 635 635 35 635 635 635 635 23 52 635 635 43 635 635 635 635 635 635 27 635 635 635 635 635 635 29 11 635 14 635 635 635 11 635 24 28 635 635 20 635 635 635 23 635 635 0 635 635 635 635 20 635 635 635 635 635 635 635 635
635 3 13 635 635 10 635 635 635 25 16 635 635 4 635 21 635 635 635 635 635 635 635 635 635 635 635 635 635 51 635 635 635 635 635 635 635 635 635 635 35 635 635 635 635 635 635 635 635 67 635 635 635 635 13 635 635 635 635 635 635 635 635 41 22 635 635 635 635 635 8 2 635 0 635 635 635 635 14 30 635 635 635 13 635 635
3 635 635 635 635 635 635 635 10 635 635 635 635 635 42 635 9 23 635 635 635 635 635 25 635 635 635 635 5 635 13 635 635 635 635 635 635 6 635 21 635 18 34 635 17 635 635 635 635 21 635 17 635 635 635 635 635 635 635 635 635 635 635 22 635 635 635 19 635 635 635 635 635 635 0 635 36 635 635 635 635 635 635 635 635 635
635 635 635 10 635 635 635 635 635 635 635 635 11 635 635 31 635 28 635 635 22 635 635 635 31 22 635 635 635 635 635 635 18 635 20 635 635 635 26 35 635 635 17 13 635 13 635 8 635 635 635 635 20 23 635 635 635 30 635 635 635 16 635 635 635 14 635 29 635 635 635 635 635 635 635 0 19 635 635 635 11 23 31 635 31 6
635 635 24 20 635 635 635 635 36 635 21 635 11 635 635 17 635 22 635 635 635 635 635 18 635 635 635 16 32 635 635 635 27 635 635 635 635 32 635 18 30 635 19 28 31 635 635 23 635 635 635 635 25 635 36 635 30 15 635 635 635 635 635 37 635 635 635 17 635 635 635 35 635 635 36 19 0 635 635 635 8 26 38 635 15 25
635 635 635 635 635 635 20 635 635 635 635 635 635 635 635 635 635 635 5 635 42 635 635 635 22 635 635 635 635 32 635 635 635 635 43 69 635 635 635 635 635 635 635 635 635 635 635 635 635 635 635 635 41 29 635 29 47 635 635 29 635 43 31 635 94 38 635 635 635 39 635 635 20 635 635 635 635 0 635 53 635 635 635 635 635 635
635 17 20 635 635 4 635 635 635 12 18 635 635 635 635 20 635 635 635 635 635 635 635 635 49 635 635 635 635 37 635 635 635 13 635 635 635 635 635 635 635 635 635 635 635 635 635 635 635 635 635 635 635 635 26 635 21 635 635 635 635 635 35 635 29 635 635 635 635 635 635 15 635 14 635 635 635 635 0 16 635 29 635 5 635 635
635 33 635 635 635 20 43 635 635 7 635 635 39 635 635 29 635 635 59 635 27 635 635 635 39 635 635 635 635 22 635 635 635 13 635 635 635 635 635 635 635 635 635 635 635 635 635 635 635 635 635 635 30 635 635 635 16 635 635 635 635 635 23 635 41 43 635 635 635 635 635 31 635 30 635 635 635 53 16 0 635 26 635 19 635 635
635 635 635 12 635 635 635 635 38 635 635 635 8 635 47 23 635 21 635 635 635 635 635 25 635 25 635 23 36 635 635 635 20 635 635 635 635 36 635 24 635 635 14 20 37 24 635 17 635 635 635 635 22 635 635 635 635 21 635 635 635 635 635 635 635 23 635 20 635 635 635 635 635 635 635 11 8 635 635 635 0 24 33 635 22 18
635 635 635 635 635 635 635 635 635 21 27 635 17 635 635 22 635 635 635 635 2 635 635 635 22 635 635 24 635 26 635 635 635 16 635 635 635 635 635 635 635 635 635 635 635 635 635 18 635 635 635 635 4 635 635 635 9 22 635 635 635 635 16 635 58 18 635 635 635 635 635 635 635 635 635 23 26 635 29 26 24 0 635 26 26 24
635 635 635 22 635 635 635 24 33 635 635 635 635 635 16 635 44 22 635 13 635 635 22 635 635 9 25 635 42 635 635 635 13 635 635 635 26 635 17 635 635 52 19 19 635 31 635 635 635 635 635 635 635 635 635 635 635 635 635 635 60 635 635 635 635 635 19 31 26 635 635 635 635 635 635 31 38 635 635 635 33 635 0 635 635 635
635 15 16 635 635 6 635 635 635 13 13 635 32 15 635 15 635 635 635 635 635 635 635 34 635 635 635 15 635 38 635 635 635 11 635 635 635 635 635 635 635 635 635 635 635 635 635 635 635 635 635 635 635 635 635 635 19 16 635 635 635 635 34 635 32 635 635 635 635 635 18 13 635 13 635 635 635 635 5 19 635 26 635 0 18 635
635 21 10 635 635 23 635 635 635 635 6 635 21 19 635 5 635 635 635 635 635 635 635 16 635 635 635 3 36 635 635 635 635 22 635 635 635 36 635 20 27 635 635 635 30 635 635 635 635 635 635 635 635 635 23 635 635 4 635 635 635 635 635 35 635 635 635 28 635 635 18 20 635 635 635 31 15 635 635 635 22 26 635 18 0 635
635 635 635 14 19 635 27 635 635 635 635 635 16 635 635 635 635 635 635 34 635 635 635 635 27 24 635 635 635 635 635 635 20 635 14 635 635 635 25 635 635 635 22 14 635 8 635 6 635 635 635 635 20 17 635 635 635 635 635 25 635 10 35 635 635 10 635 635 635 635 635 635 635 635 635 6 25 635 635 635 18 24 635 635 635 0
EOF
